NAME           C:\Bruker\Hvattum\knapsack\Problems\class1\100-5-02.mps
ROWS
 N  OBJ
 L  CONSTR1
 L  CONSTR2
 L  CONSTR3
 L  CONSTR4
 L  CONSTR5
COLUMNS
    INT0001   'MARKER'  'INTORG'
    X1        OBJ       869
    X1        CONSTR1   523
    X1        CONSTR2   524
    X1        CONSTR3   441
    X1        CONSTR4   959
    X1        CONSTR5   1000
    X2        OBJ       1043
    X2        CONSTR1   940
    X2        CONSTR2   304
    X2        CONSTR3   777
    X2        CONSTR4   912
    X2        CONSTR5   430
    X3        OBJ       829
    X3        CONSTR1   933
    X3        CONSTR2   525
    X3        CONSTR3   73
    X3        CONSTR4   469
    X3        CONSTR5   888
    X4        OBJ       813
    X4        CONSTR1   411
    X4        CONSTR2   400
    X4        CONSTR3   948
    X4        CONSTR4   37
    X4        CONSTR5   258
    X5        OBJ       683
    X5        CONSTR1   125
    X5        CONSTR2   928
    X5        CONSTR3   126
    X5        CONSTR4   671
    X5        CONSTR5   727
    X6        OBJ       548
    X6        CONSTR1   834
    X6        CONSTR2   370
    X6        CONSTR3   873
    X6        CONSTR4   16
    X6        CONSTR5   557
    X7        OBJ       658
    X7        CONSTR1   298
    X7        CONSTR2   589
    X7        CONSTR3   984
    X7        CONSTR4   465
    X7        CONSTR5   270
    X8        OBJ       785
    X8        CONSTR1   671
    X8        CONSTR2   986
    X8        CONSTR3   192
    X8        CONSTR4   366
    X8        CONSTR5   509
    X9        OBJ       733
    X9        CONSTR1   664
    X9        CONSTR2   933
    X9        CONSTR3   590
    X9        CONSTR4   172
    X9        CONSTR5   493
    X10       OBJ       751
    X10       CONSTR1   901
    X10       CONSTR2   168
    X10       CONSTR3   139
    X10       CONSTR4   940
    X10       CONSTR5   538
    X11       OBJ       891
    X11       CONSTR1   236
    X11       CONSTR2   661
    X11       CONSTR3   260
    X11       CONSTR4   636
    X11       CONSTR5   178
    X12       OBJ       549
    X12       CONSTR1   382
    X12       CONSTR2   28
    X12       CONSTR3   494
    X12       CONSTR4   467
    X12       CONSTR5   468
    X13       OBJ       365
    X13       CONSTR1   381
    X13       CONSTR2   349
    X13       CONSTR3   352
    X13       CONSTR4   250
    X13       CONSTR5   266
    X14       OBJ       633
    X14       CONSTR1   789
    X14       CONSTR2   864
    X14       CONSTR3   215
    X14       CONSTR4   120
    X14       CONSTR5   104
    X15       OBJ       691
    X15       CONSTR1   613
    X15       CONSTR2   305
    X15       CONSTR3   786
    X15       CONSTR4   678
    X15       CONSTR5   848
    X16       OBJ       583
    X16       CONSTR1   954
    X16       CONSTR2   74
    X16       CONSTR3   264
    X16       CONSTR4   210
    X16       CONSTR5   850
    X17       OBJ       693
    X17       CONSTR1   637
    X17       CONSTR2   692
    X17       CONSTR3   486
    X17       CONSTR4   328
    X17       CONSTR5   931
    X18       OBJ       625
    X18       CONSTR1   438
    X18       CONSTR2   502
    X18       CONSTR3   318
    X18       CONSTR4   910
    X18       CONSTR5   477
    X19       OBJ       880
    X19       CONSTR1   911
    X19       CONSTR2   177
    X19       CONSTR3   489
    X19       CONSTR4   529
    X19       CONSTR5   528
    X20       OBJ       544
    X20       CONSTR1   459
    X20       CONSTR2   461
    X20       CONSTR3   266
    X20       CONSTR4   620
    X20       CONSTR5   525
    X21       OBJ       1038
    X21       CONSTR1   630
    X21       CONSTR2   752
    X21       CONSTR3   668
    X21       CONSTR4   1
    X21       CONSTR5   882
    X22       OBJ       525
    X22       CONSTR1   722
    X22       CONSTR2   562
    X22       CONSTR3   263
    X22       CONSTR4   18
    X22       CONSTR5   287
    X23       OBJ       706
    X23       CONSTR1   929
    X23       CONSTR2   708
    X23       CONSTR3   489
    X23       CONSTR4   284
    X23       CONSTR5   200
    X24       OBJ       557
    X24       CONSTR1   225
    X24       CONSTR2   733
    X24       CONSTR3   11
    X24       CONSTR4   940
    X24       CONSTR5   93
    X25       OBJ       974
    X25       CONSTR1   463
    X25       CONSTR2   956
    X25       CONSTR3   139
    X25       CONSTR4   931
    X25       CONSTR5   697
    X26       OBJ       802
    X26       CONSTR1   702
    X26       CONSTR2   858
    X26       CONSTR3   301
    X26       CONSTR4   8
    X26       CONSTR5   974
    X27       OBJ       460
    X27       CONSTR1   870
    X27       CONSTR2   535
    X27       CONSTR3   37
    X27       CONSTR4   121
    X27       CONSTR5   498
    X28       OBJ       813
    X28       CONSTR1   787
    X28       CONSTR2   848
    X28       CONSTR3   132
    X28       CONSTR4   10
    X28       CONSTR5   20
    X29       OBJ       1126
    X29       CONSTR1   577
    X29       CONSTR2   592
    X29       CONSTR3   831
    X29       CONSTR4   728
    X29       CONSTR5   490
    X30       OBJ       698
    X30       CONSTR1   119
    X30       CONSTR2   701
    X30       CONSTR3   738
    X30       CONSTR4   790
    X30       CONSTR5   969
    X31       OBJ       550
    X31       CONSTR1   835
    X31       CONSTR2   219
    X31       CONSTR3   727
    X31       CONSTR4   171
    X31       CONSTR5   26
    X32       OBJ       895
    X32       CONSTR1   795
    X32       CONSTR2   597
    X32       CONSTR3   459
    X32       CONSTR4   613
    X32       CONSTR5   578
    X33       OBJ       807
    X33       CONSTR1   313
    X33       CONSTR2   774
    X33       CONSTR3   737
    X33       CONSTR4   200
    X33       CONSTR5   897
    X34       OBJ       844
    X34       CONSTR1   938
    X34       CONSTR2   716
    X34       CONSTR3   818
    X34       CONSTR4   73
    X34       CONSTR5   130
    X35       OBJ       802
    X35       CONSTR1   239
    X35       CONSTR2   450
    X35       CONSTR3   304
    X35       CONSTR4   882
    X35       CONSTR5   198
    X36       OBJ       966
    X36       CONSTR1   751
    X36       CONSTR2   871
    X36       CONSTR3   988
    X36       CONSTR4   138
    X36       CONSTR5   253
    X37       OBJ       838
    X37       CONSTR1   736
    X37       CONSTR2   84
    X37       CONSTR3   702
    X37       CONSTR4   83
    X37       CONSTR5   916
    X38       OBJ       1075
    X38       CONSTR1   447
    X38       CONSTR2   881
    X38       CONSTR3   144
    X38       CONSTR4   969
    X38       CONSTR5   864
    X39       OBJ       332
    X39       CONSTR1   81
    X39       CONSTR2   239
    X39       CONSTR3   156
    X39       CONSTR4   105
    X39       CONSTR5   891
    X40       OBJ       678
    X40       CONSTR1   984
    X40       CONSTR2   83
    X40       CONSTR3   180
    X40       CONSTR4   55
    X40       CONSTR5   714
    X41       OBJ       440
    X41       CONSTR1   529
    X41       CONSTR2   285
    X41       CONSTR3   885
    X41       CONSTR4   335
    X41       CONSTR5   48
    X42       OBJ       644
    X42       CONSTR1   683
    X42       CONSTR2   309
    X42       CONSTR3   289
    X42       CONSTR4   75
    X42       CONSTR5   497
    X43       OBJ       700
    X43       CONSTR1   67
    X43       CONSTR2   713
    X43       CONSTR3   199
    X43       CONSTR4   46
    X43       CONSTR5   963
    X44       OBJ       546
    X44       CONSTR1   55
    X44       CONSTR2   16
    X44       CONSTR3   493
    X44       CONSTR4   909
    X44       CONSTR5   255
    X45       OBJ       500
    X45       CONSTR1   21
    X45       CONSTR2   47
    X45       CONSTR3   657
    X45       CONSTR4   774
    X45       CONSTR5   370
    X46       OBJ       782
    X46       CONSTR1   192
    X46       CONSTR2   475
    X46       CONSTR3   234
    X46       CONSTR4   858
    X46       CONSTR5   84
    X47       OBJ       965
    X47       CONSTR1   776
    X47       CONSTR2   541
    X47       CONSTR3   866
    X47       CONSTR4   863
    X47       CONSTR5   769
    X48       OBJ       1054
    X48       CONSTR1   797
    X48       CONSTR2   592
    X48       CONSTR3   952
    X48       CONSTR4   665
    X48       CONSTR5   765
    X49       OBJ       854
    X49       CONSTR1   248
    X49       CONSTR2   610
    X49       CONSTR3   50
    X49       CONSTR4   845
    X49       CONSTR5   656
    X50       OBJ       1053
    X50       CONSTR1   253
    X50       CONSTR2   165
    X50       CONSTR3   834
    X50       CONSTR4   812
    X50       CONSTR5   767
    X51       OBJ       721
    X51       CONSTR1   405
    X51       CONSTR2   990
    X51       CONSTR3   891
    X51       CONSTR4   549
    X51       CONSTR5   16
    X52       OBJ       572
    X52       CONSTR1   600
    X52       CONSTR2   378
    X52       CONSTR3   398
    X52       CONSTR4   338
    X52       CONSTR5   334
    X53       OBJ       773
    X53       CONSTR1   706
    X53       CONSTR2   45
    X53       CONSTR3   604
    X53       CONSTR4   460
    X53       CONSTR5   749
    X54       OBJ       853
    X54       CONSTR1   188
    X54       CONSTR2   642
    X54       CONSTR3   791
    X54       CONSTR4   214
    X54       CONSTR5   806
    X55       OBJ       840
    X55       CONSTR1   882
    X55       CONSTR2   870
    X55       CONSTR3   8
    X55       CONSTR4   42
    X55       CONSTR5   966
    X56       OBJ       849
    X56       CONSTR1   28
    X56       CONSTR2   605
    X56       CONSTR3   917
    X56       CONSTR4   952
    X56       CONSTR5   378
    X57       OBJ       715
    X57       CONSTR1   165
    X57       CONSTR2   856
    X57       CONSTR3   76
    X57       CONSTR4   152
    X57       CONSTR5   247
    X58       OBJ       1032
    X58       CONSTR1   912
    X58       CONSTR2   812
    X58       CONSTR3   266
    X58       CONSTR4   808
    X58       CONSTR5   126
    X59       OBJ       762
    X59       CONSTR1   368
    X59       CONSTR2   833
    X59       CONSTR3   233
    X59       CONSTR4   169
    X59       CONSTR5   860
    X60       OBJ       779
    X60       CONSTR1   896
    X60       CONSTR2   837
    X60       CONSTR3   322
    X60       CONSTR4   161
    X60       CONSTR5   601
    X61       OBJ       780
    X61       CONSTR1   825
    X61       CONSTR2   512
    X61       CONSTR3   830
    X61       CONSTR4   162
    X61       CONSTR5   545
    X62       OBJ       685
    X62       CONSTR1   235
    X62       CONSTR2   83
    X62       CONSTR3   370
    X62       CONSTR4   446
    X62       CONSTR5   5
    X63       OBJ       572
    X63       CONSTR1   72
    X63       CONSTR2   54
    X63       CONSTR3   248
    X63       CONSTR4   162
    X63       CONSTR5   163
    X64       OBJ       737
    X64       CONSTR1   739
    X64       CONSTR2   998
    X64       CONSTR3   579
    X64       CONSTR4   514
    X64       CONSTR5   487
    X65       OBJ       931
    X65       CONSTR1   873
    X65       CONSTR2   743
    X65       CONSTR3   120
    X65       CONSTR4   502
    X65       CONSTR5   447
    X66       OBJ       945
    X66       CONSTR1   169
    X66       CONSTR2   668
    X66       CONSTR3   976
    X66       CONSTR4   507
    X66       CONSTR5   889
    X67       OBJ       828
    X67       CONSTR1   408
    X67       CONSTR2   748
    X67       CONSTR3   554
    X67       CONSTR4   578
    X67       CONSTR5   910
    X68       OBJ       978
    X68       CONSTR1   986
    X68       CONSTR2   809
    X68       CONSTR3   890
    X68       CONSTR4   655
    X68       CONSTR5   771
    X69       OBJ       965
    X69       CONSTR1   474
    X69       CONSTR2   704
    X69       CONSTR3   364
    X69       CONSTR4   963
    X69       CONSTR5   485
    X70       OBJ       701
    X70       CONSTR1   838
    X70       CONSTR2   630
    X70       CONSTR3   488
    X70       CONSTR4   29
    X70       CONSTR5   626
    X71       OBJ       431
    X71       CONSTR1   108
    X71       CONSTR2   414
    X71       CONSTR3   435
    X71       CONSTR4   356
    X71       CONSTR5   65
    X72       OBJ       862
    X72       CONSTR1   331
    X72       CONSTR2   25
    X72       CONSTR3   704
    X72       CONSTR4   939
    X72       CONSTR5   958
    X73       OBJ       719
    X73       CONSTR1   361
    X73       CONSTR2   723
    X73       CONSTR3   56
    X73       CONSTR4   605
    X73       CONSTR5   893
    X74       OBJ       877
    X74       CONSTR1   360
    X74       CONSTR2   10
    X74       CONSTR3   435
    X74       CONSTR4   217
    X74       CONSTR5   985
    X75       OBJ       838
    X75       CONSTR1   790
    X75       CONSTR2   479
    X75       CONSTR3   891
    X75       CONSTR4   145
    X75       CONSTR5   156
    X76       OBJ       813
    X76       CONSTR1   206
    X76       CONSTR2   923
    X76       CONSTR3   776
    X76       CONSTR4   670
    X76       CONSTR5   892
    X77       OBJ       275
    X77       CONSTR1   258
    X77       CONSTR2   156
    X77       CONSTR3   5
    X77       CONSTR4   604
    X77       CONSTR5   253
    X78       OBJ       802
    X78       CONSTR1   331
    X78       CONSTR2   505
    X78       CONSTR3   804
    X78       CONSTR4   821
    X78       CONSTR5   661
    X79       OBJ       754
    X79       CONSTR1   117
    X79       CONSTR2   844
    X79       CONSTR3   858
    X79       CONSTR4   121
    X79       CONSTR5   720
    X80       OBJ       547
    X80       CONSTR1   208
    X80       CONSTR2   897
    X80       CONSTR3   198
    X80       CONSTR4   434
    X80       CONSTR5   988
    X81       OBJ       1039
    X81       CONSTR1   865
    X81       CONSTR2   483
    X81       CONSTR3   993
    X81       CONSTR4   818
    X81       CONSTR5   588
    X82       OBJ       940
    X82       CONSTR1   521
    X82       CONSTR2   611
    X82       CONSTR3   344
    X82       CONSTR4   720
    X82       CONSTR5   474
    X83       OBJ       730
    X83       CONSTR1   214
    X83       CONSTR2   956
    X83       CONSTR3   124
    X83       CONSTR4   711
    X83       CONSTR5   518
    X84       OBJ       1195
    X84       CONSTR1   607
    X84       CONSTR2   590
    X84       CONSTR3   955
    X84       CONSTR4   804
    X84       CONSTR5   878
    X85       OBJ       871
    X85       CONSTR1   625
    X85       CONSTR2   452
    X85       CONSTR3   885
    X85       CONSTR4   615
    X85       CONSTR5   705
    X86       OBJ       560
    X86       CONSTR1   126
    X86       CONSTR2   323
    X86       CONSTR3   884
    X86       CONSTR4   745
    X86       CONSTR5   664
    X87       OBJ       627
    X87       CONSTR1   549
    X87       CONSTR2   328
    X87       CONSTR3   565
    X87       CONSTR4   134
    X87       CONSTR5   818
    X88       OBJ       503
    X88       CONSTR1   429
    X88       CONSTR2   199
    X88       CONSTR3   42
    X88       CONSTR4   835
    X88       CONSTR5   793
    X89       OBJ       523
    X89       CONSTR1   541
    X89       CONSTR2   501
    X89       CONSTR3   94
    X89       CONSTR4   205
    X89       CONSTR5   154
    X90       OBJ       906
    X90       CONSTR1   636
    X90       CONSTR2   883
    X90       CONSTR3   558
    X90       CONSTR4   946
    X90       CONSTR5   676
    X91       OBJ       612
    X91       CONSTR1   26
    X91       CONSTR2   81
    X91       CONSTR3   19
    X91       CONSTR4   894
    X91       CONSTR5   170
    X92       OBJ       857
    X92       CONSTR1   366
    X92       CONSTR2   14
    X92       CONSTR3   328
    X92       CONSTR4   385
    X92       CONSTR5   963
    X93       OBJ       660
    X93       CONSTR1   194
    X93       CONSTR2   953
    X93       CONSTR3   77
    X93       CONSTR4   491
    X93       CONSTR5   165
    X94       OBJ       890
    X94       CONSTR1   476
    X94       CONSTR2   88
    X94       CONSTR3   564
    X94       CONSTR4   915
    X94       CONSTR5   25
    X95       OBJ       864
    X95       CONSTR1   956
    X95       CONSTR2   134
    X95       CONSTR3   54
    X95       CONSTR4   956
    X95       CONSTR5   742
    X96       OBJ       976
    X96       CONSTR1   568
    X96       CONSTR2   573
    X96       CONSTR3   749
    X96       CONSTR4   204
    X96       CONSTR5   661
    X97       OBJ       840
    X97       CONSTR1   520
    X97       CONSTR2   887
    X97       CONSTR3   597
    X97       CONSTR4   449
    X97       CONSTR5   689
    X98       OBJ       569
    X98       CONSTR1   159
    X98       CONSTR2   326
    X98       CONSTR3   973
    X98       CONSTR4   862
    X98       CONSTR5   429
    X99       OBJ       702
    X99       CONSTR1   879
    X99       CONSTR2   491
    X99       CONSTR3   633
    X99       CONSTR4   596
    X99       CONSTR5   703
    X100      OBJ       977
    X100      CONSTR1   404
    X100      CONSTR2   269
    X100      CONSTR3   469
    X100      CONSTR4   460
    X100      CONSTR5   964
    INT0001   'MARKER'  'INTEND'
RHS
    RHS10001  CONSTR1   12841
    RHS10001  CONSTR2   13172
    RHS10001  CONSTR3   12088
    RHS10001  CONSTR4   12269
    RHS10001  CONSTR5   13839
BOUNDS
 BV BND       X1        .00
 BV BND       X2        .00
 BV BND       X3        .00
 BV BND       X4        .00
 BV BND       X5        .00
 BV BND       X6        .00
 BV BND       X7        .00
 BV BND       X8        .00
 BV BND       X9        .00
 BV BND       X10       .00
 BV BND       X11       .00
 BV BND       X12       .00
 BV BND       X13       .00
 BV BND       X14       .00
 BV BND       X15       .00
 BV BND       X16       .00
 BV BND       X17       .00
 BV BND       X18       .00
 BV BND       X19       .00
 BV BND       X20       .00
 BV BND       X21       .00
 BV BND       X22       .00
 BV BND       X23       .00
 BV BND       X24       .00
 BV BND       X25       .00
 BV BND       X26       .00
 BV BND       X27       .00
 BV BND       X28       .00
 BV BND       X29       .00
 BV BND       X30       .00
 BV BND       X31       .00
 BV BND       X32       .00
 BV BND       X33       .00
 BV BND       X34       .00
 BV BND       X35       .00
 BV BND       X36       .00
 BV BND       X37       .00
 BV BND       X38       .00
 BV BND       X39       .00
 BV BND       X40       .00
 BV BND       X41       .00
 BV BND       X42       .00
 BV BND       X43       .00
 BV BND       X44       .00
 BV BND       X45       .00
 BV BND       X46       .00
 BV BND       X47       .00
 BV BND       X48       .00
 BV BND       X49       .00
 BV BND       X50       .00
 BV BND       X51       .00
 BV BND       X52       .00
 BV BND       X53       .00
 BV BND       X54       .00
 BV BND       X55       .00
 BV BND       X56       .00
 BV BND       X57       .00
 BV BND       X58       .00
 BV BND       X59       .00
 BV BND       X60       .00
 BV BND       X61       .00
 BV BND       X62       .00
 BV BND       X63       .00
 BV BND       X64       .00
 BV BND       X65       .00
 BV BND       X66       .00
 BV BND       X67       .00
 BV BND       X68       .00
 BV BND       X69       .00
 BV BND       X70       .00
 BV BND       X71       .00
 BV BND       X72       .00
 BV BND       X73       .00
 BV BND       X74       .00
 BV BND       X75       .00
 BV BND       X76       .00
 BV BND       X77       .00
 BV BND       X78       .00
 BV BND       X79       .00
 BV BND       X80       .00
 BV BND       X81       .00
 BV BND       X82       .00
 BV BND       X83       .00
 BV BND       X84       .00
 BV BND       X85       .00
 BV BND       X86       .00
 BV BND       X87       .00
 BV BND       X88       .00
 BV BND       X89       .00
 BV BND       X90       .00
 BV BND       X91       .00
 BV BND       X92       .00
 BV BND       X93       .00
 BV BND       X94       .00
 BV BND       X95       .00
 BV BND       X96       .00
 BV BND       X97       .00
 BV BND       X98       .00
 BV BND       X99       .00
 BV BND       X100      .00
ENDATA
